829,258
751,503
694,380
1117,723
850,237
898,833
847,-107
491,596
361,569
601,366
1137,554
810,805
504,753
710,402
282,535
196,249
311,286
695,494
545,139
570,748
829,862
148,322
281,610
672,465
573,619
874,140
707,393
641,326
795,443
745,605
